Minimize
 + 10 x6 + 10 x7 + 10 x8 + 10 x9 + 10 x10 + 10 x11 + 10 x12 + 10 x13 + 10 x14 + 10 x15 + 8 x16 + 8 x17 + 8 x18 + 8 x19 + 8 x20 + 8 x21 + 8 x22 + 8 x23 + 8 x24 + 8 x25 + 8 x26 + 8 x27 + 8 x28 + 8 x29 + 8 x30 + 8 x31 + 8 x32 + 8 x33 + 8 x34 + 8 x35 + 8 x36 + 8 x37 + 8 x38 + 8 x39 + 8 x40
Subject To
 + y6,1 + y6,1 + y6,1 + y6,1 + y6,1 + y6,1 + y6,1 + y6,1 + y6,1 = 1
 + y7,1 + y7,1 + y7,1 + y7,1 + y7,1 + y7,1 + y7,1 + y7,1 + y7,1 = 1
 + y8,1 + y8,1 + y8,1 + y8,1 + y8,1 + y8,1 + y8,1 + y8,1 + y8,1 + y8,1 = 1
 + y9,1 + y9,1 + y9,1 + y9,1 + y9,1 + y9,1 + y9,1 + y9,1 + y9,1 + y9,1 + y9,1 = 1
 + y10,1 + y10,1 + y10,1 + y10,1 + y10,1 + y10,1 + y10,1 + y10,1 + y10,1 + y10,1 + y10,1 + y10,1 + y10,1 + y10,1 + y10,1 = 1
 + y11,1 + y11,1 + y11,1 + y11,1 + y11,1 + y11,1 + y11,1 + y11,1 + y11,1 + y11,1 = 1
 + y12,1 + y12,1 + y12,1 + y12,1 + y12,1 + y12,1 + y12,1 + y12,1 = 1
 + y13,1 + y13,1 + y13,1 + y13,1 + y13,1 + y13,1 + y13,1 + y13,1 + y13,1 + y13,1 + y13,1 = 1
 + y14,1 + y14,1 + y14,1 + y14,1 + y14,1 + y14,1 + y14,1 + y14,1 + y14,1 + y14,1 + y14,1 = 1
 + y15,1 + y15,1 + y15,1 + y15,1 + y15,1 + y15,1 = 1
 + y16,1 + y16,1 + y16,1 + y16,1 + y16,1 + y16,1 + y16,1 + y16,1 + y16,1 = 1
 + y17,1 + y17,1 + y17,1 + y17,1 + y17,1 + y17,1 = 1
 + y18,1 + y18,1 + y18,1 + y18,1 + y18,1 + y18,1 = 1
 + y19,1 + y19,1 + y19,1 + y19,1 + y19,1 + y19,1 + y19,1 = 1
 + y20,1 + y20,1 + y20,1 + y20,1 + y20,1 + y20,1 = 1
 + y21,1 + y21,1 + y21,1 + y21,1 + y21,1 + y21,1 = 1
 + y22,1 + y22,1 + y22,1 + y22,1 + y22,1 + y22,1 + y22,1 + y22,1 = 1
 + y23,1 + y23,1 + y23,1 + y23,1 + y23,1 + y23,1 + y23,1 = 1
 + y24,1 + y24,1 + y24,1 + y24,1 + y24,1 + y24,1 + y24,1 = 1
 + y25,1 + y25,1 + y25,1 + y25,1 + y25,1 + y25,1 + y25,1 = 1
 + y26,1 + y26,1 + y26,1 + y26,1 + y26,1 = 1
 + y27,1 + y27,1 + y27,1 + y27,1 + y27,1 + y27,1 + y27,1 + y27,1 = 1
 + y28,1 + y28,1 + y28,1 + y28,1 + y28,1 + y28,1 = 1
 + y29,1 + y29,1 + y29,1 + y29,1 + y29,1 + y29,1 = 1
 + y30,1 + y30,1 + y30,1 + y30,1 + y30,1 + y30,1 + y30,1 + y30,1 + y30,1 = 1
 + y31,1 + y31,1 + y31,1 + y31,1 = 1
 + y32,1 + y32,1 + y32,1 + y32,1 = 1
 + y33,1 + y33,1 + y33,1 + y33,1 + y33,1 = 1
 + y34,1 + y34,1 + y34,1 + y34,1 + y34,1 = 1
 + y35,1 + y35,1 + y35,1 + y35,1 + y35,1 = 1
 + y36,1 + y36,1 + y36,1 + y36,1 + y36,1 = 1
 + y37,1 + y37,1 + y37,1 + y37,1 + y37,1 = 1
 + y38,1 + y38,1 + y38,1 + y38,1 + y38,1 = 1
 + y39,1 + y39,1 + y39,1 + y39,1 = 1
 + y40,1 + y40,1 + y40,1 + y40,1 = 1
 + y6,1 - x1 <= 0
 + y6,1 - x1 <= 0
 + y6,1 - x1 <= 0
 + y6,1 - x1 <= 0
 + y6,1 - x1 <= 0
 + y6,1 - x1 <= 0
 + y6,1 - x1 <= 0
 + y6,1 - x1 <= 0
 + y6,1 - x1 <= 0
 + y7,1 - x1 <= 0
 + y7,1 - x1 <= 0
 + y7,1 - x1 <= 0
 + y7,1 - x1 <= 0
 + y7,1 - x1 <= 0
 + y7,1 - x1 <= 0
 + y7,1 - x1 <= 0
 + y7,1 - x1 <= 0
 + y7,1 - x1 <= 0
 + y8,1 - x1 <= 0
 + y8,1 - x1 <= 0
 + y8,1 - x1 <= 0
 + y8,1 - x1 <= 0
 + y8,1 - x1 <= 0
 + y8,1 - x1 <= 0
 + y8,1 - x1 <= 0
 + y8,1 - x1 <= 0
 + y8,1 - x1 <= 0
 + y8,1 - x1 <= 0
 + y9,1 - x1 <= 0
 + y9,1 - x1 <= 0
 + y9,1 - x1 <= 0
 + y9,1 - x1 <= 0
 + y9,1 - x1 <= 0
 + y9,1 - x1 <= 0
 + y9,1 - x1 <= 0
 + y9,1 - x1 <= 0
 + y9,1 - x1 <= 0
 + y9,1 - x1 <= 0
 + y9,1 - x1 <= 0
 + y10,1 - x1 <= 0
 + y10,1 - x1 <= 0
 + y10,1 - x1 <= 0
 + y10,1 - x1 <= 0
 + y10,1 - x1 <= 0
 + y10,1 - x1 <= 0
 + y10,1 - x1 <= 0
 + y10,1 - x1 <= 0
 + y10,1 - x1 <= 0
 + y10,1 - x1 <= 0
 + y10,1 - x1 <= 0
 + y10,1 - x1 <= 0
 + y10,1 - x1 <= 0
 + y10,1 - x1 <= 0
 + y10,1 - x1 <= 0
 + y11,1 - x1 <= 0
 + y11,1 - x1 <= 0
 + y11,1 - x1 <= 0
 + y11,1 - x1 <= 0
 + y11,1 - x1 <= 0
 + y11,1 - x1 <= 0
 + y11,1 - x1 <= 0
 + y11,1 - x1 <= 0
 + y11,1 - x1 <= 0
 + y11,1 - x1 <= 0
 + y12,1 - x1 <= 0
 + y12,1 - x1 <= 0
 + y12,1 - x1 <= 0
 + y12,1 - x1 <= 0
 + y12,1 - x1 <= 0
 + y12,1 - x1 <= 0
 + y12,1 - x1 <= 0
 + y12,1 - x1 <= 0
 + y13,1 - x1 <= 0
 + y13,1 - x1 <= 0
 + y13,1 - x1 <= 0
 + y13,1 - x1 <= 0
 + y13,1 - x1 <= 0
 + y13,1 - x1 <= 0
 + y13,1 - x1 <= 0
 + y13,1 - x1 <= 0
 + y13,1 - x1 <= 0
 + y13,1 - x1 <= 0
 + y13,1 - x1 <= 0
 + y14,1 - x1 <= 0
 + y14,1 - x1 <= 0
 + y14,1 - x1 <= 0
 + y14,1 - x1 <= 0
 + y14,1 - x1 <= 0
 + y14,1 - x1 <= 0
 + y14,1 - x1 <= 0
 + y14,1 - x1 <= 0
 + y14,1 - x1 <= 0
 + y14,1 - x1 <= 0
 + y14,1 - x1 <= 0
 + y15,1 - x1 <= 0
 + y15,1 - x1 <= 0
 + y15,1 - x1 <= 0
 + y15,1 - x1 <= 0
 + y15,1 - x1 <= 0
 + y15,1 - x1 <= 0
 + y16,1 - x1 <= 0
 + y16,1 - x1 <= 0
 + y16,1 - x1 <= 0
 + y16,1 - x1 <= 0
 + y16,1 - x1 <= 0
 + y16,1 - x1 <= 0
 + y16,1 - x1 <= 0
 + y16,1 - x1 <= 0
 + y16,1 - x1 <= 0
 + y17,1 - x1 <= 0
 + y17,1 - x1 <= 0
 + y17,1 - x1 <= 0
 + y17,1 - x1 <= 0
 + y17,1 - x1 <= 0
 + y17,1 - x1 <= 0
 + y18,1 - x1 <= 0
 + y18,1 - x1 <= 0
 + y18,1 - x1 <= 0
 + y18,1 - x1 <= 0
 + y18,1 - x1 <= 0
 + y18,1 - x1 <= 0
 + y19,1 - x1 <= 0
 + y19,1 - x1 <= 0
 + y19,1 - x1 <= 0
 + y19,1 - x1 <= 0
 + y19,1 - x1 <= 0
 + y19,1 - x1 <= 0
 + y19,1 - x1 <= 0
 + y20,1 - x1 <= 0
 + y20,1 - x1 <= 0
 + y20,1 - x1 <= 0
 + y20,1 - x1 <= 0
 + y20,1 - x1 <= 0
 + y20,1 - x1 <= 0
 + y21,1 - x1 <= 0
 + y21,1 - x1 <= 0
 + y21,1 - x1 <= 0
 + y21,1 - x1 <= 0
 + y21,1 - x1 <= 0
 + y21,1 - x1 <= 0
 + y22,1 - x1 <= 0
 + y22,1 - x1 <= 0
 + y22,1 - x1 <= 0
 + y22,1 - x1 <= 0
 + y22,1 - x1 <= 0
 + y22,1 - x1 <= 0
 + y22,1 - x1 <= 0
 + y22,1 - x1 <= 0
 + y23,1 - x1 <= 0
 + y23,1 - x1 <= 0
 + y23,1 - x1 <= 0
 + y23,1 - x1 <= 0
 + y23,1 - x1 <= 0
 + y23,1 - x1 <= 0
 + y23,1 - x1 <= 0
 + y24,1 - x1 <= 0
 + y24,1 - x1 <= 0
 + y24,1 - x1 <= 0
 + y24,1 - x1 <= 0
 + y24,1 - x1 <= 0
 + y24,1 - x1 <= 0
 + y24,1 - x1 <= 0
 + y25,1 - x1 <= 0
 + y25,1 - x1 <= 0
 + y25,1 - x1 <= 0
 + y25,1 - x1 <= 0
 + y25,1 - x1 <= 0
 + y25,1 - x1 <= 0
 + y25,1 - x1 <= 0
 + y26,1 - x1 <= 0
 + y26,1 - x1 <= 0
 + y26,1 - x1 <= 0
 + y26,1 - x1 <= 0
 + y26,1 - x1 <= 0
 + y27,1 - x1 <= 0
 + y27,1 - x1 <= 0
 + y27,1 - x1 <= 0
 + y27,1 - x1 <= 0
 + y27,1 - x1 <= 0
 + y27,1 - x1 <= 0
 + y27,1 - x1 <= 0
 + y27,1 - x1 <= 0
 + y28,1 - x1 <= 0
 + y28,1 - x1 <= 0
 + y28,1 - x1 <= 0
 + y28,1 - x1 <= 0
 + y28,1 - x1 <= 0
 + y28,1 - x1 <= 0
 + y29,1 - x1 <= 0
 + y29,1 - x1 <= 0
 + y29,1 - x1 <= 0
 + y29,1 - x1 <= 0
 + y29,1 - x1 <= 0
 + y29,1 - x1 <= 0
 + y30,1 - x1 <= 0
 + y30,1 - x1 <= 0
 + y30,1 - x1 <= 0
 + y30,1 - x1 <= 0
 + y30,1 - x1 <= 0
 + y30,1 - x1 <= 0
 + y30,1 - x1 <= 0
 + y30,1 - x1 <= 0
 + y30,1 - x1 <= 0
 + y31,1 - x1 <= 0
 + y31,1 - x1 <= 0
 + y31,1 - x1 <= 0
 + y31,1 - x1 <= 0
 + y32,1 - x1 <= 0
 + y32,1 - x1 <= 0
 + y32,1 - x1 <= 0
 + y32,1 - x1 <= 0
 + y33,1 - x1 <= 0
 + y33,1 - x1 <= 0
 + y33,1 - x1 <= 0
 + y33,1 - x1 <= 0
 + y33,1 - x1 <= 0
 + y34,1 - x1 <= 0
 + y34,1 - x1 <= 0
 + y34,1 - x1 <= 0
 + y34,1 - x1 <= 0
 + y34,1 - x1 <= 0
 + y35,1 - x1 <= 0
 + y35,1 - x1 <= 0
 + y35,1 - x1 <= 0
 + y35,1 - x1 <= 0
 + y35,1 - x1 <= 0
 + y36,1 - x1 <= 0
 + y36,1 - x1 <= 0
 + y36,1 - x1 <= 0
 + y36,1 - x1 <= 0
 + y36,1 - x1 <= 0
 + y37,1 - x1 <= 0
 + y37,1 - x1 <= 0
 + y37,1 - x1 <= 0
 + y37,1 - x1 <= 0
 + y37,1 - x1 <= 0
 + y38,1 - x1 <= 0
 + y38,1 - x1 <= 0
 + y38,1 - x1 <= 0
 + y38,1 - x1 <= 0
 + y38,1 - x1 <= 0
 + y39,1 - x1 <= 0
 + y39,1 - x1 <= 0
 + y39,1 - x1 <= 0
 + y39,1 - x1 <= 0
 + y40,1 - x1 <= 0
 + y40,1 - x1 <= 0
 + y40,1 - x1 <= 0
 + y40,1 - x1 <= 0
Binary
 x6 x7 x8 x9 x10 x11 x12 x13 x14 x15 x16 x17 x18 x19 x20 x21 x22 x23 x24 x25 x26 x27 x28 x29 x30 x31 x32 x33 x34 x35 x36 x37 x38 x39 x40
 y6,1 y6,1 y6,1 y6,1 y6,1 y6,1 y6,1 y6,1 y6,1 y7,1 y7,1 y7,1 y7,1 y7,1 y7,1 y7,1 y7,1 y7,1 y8,1 y8,1 y8,1 y8,1 y8,1 y8,1 y8,1 y8,1 y8,1 y8,1 y9,1 y9,1 y9,1 y9,1 y9,1 y9,1 y9,1 y9,1 y9,1 y9,1 y9,1 y10,1 y10,1 y10,1 y10,1 y10,1 y10,1 y10,1 y10,1 y10,1 y10,1 y10,1 y10,1 y10,1 y10,1 y10,1 y11,1 y11,1 y11,1 y11,1 y11,1 y11,1 y11,1 y11,1 y11,1 y11,1 y12,1 y12,1 y12,1 y12,1 y12,1 y12,1 y12,1 y12,1 y13,1 y13,1 y13,1 y13,1 y13,1 y13,1 y13,1 y13,1 y13,1 y13,1 y13,1 y14,1 y14,1 y14,1 y14,1 y14,1 y14,1 y14,1 y14,1 y14,1 y14,1 y14,1 y15,1 y15,1 y15,1 y15,1 y15,1 y15,1 y16,1 y16,1 y16,1 y16,1 y16,1 y16,1 y16,1 y16,1 y16,1 y17,1 y17,1 y17,1 y17,1 y17,1 y17,1 y18,1 y18,1 y18,1 y18,1 y18,1 y18,1 y19,1 y19,1 y19,1 y19,1 y19,1 y19,1 y19,1 y20,1 y20,1 y20,1 y20,1 y20,1 y20,1 y21,1 y21,1 y21,1 y21,1 y21,1 y21,1 y22,1 y22,1 y22,1 y22,1 y22,1 y22,1 y22,1 y22,1 y23,1 y23,1 y23,1 y23,1 y23,1 y23,1 y23,1 y24,1 y24,1 y24,1 y24,1 y24,1 y24,1 y24,1 y25,1 y25,1 y25,1 y25,1 y25,1 y25,1 y25,1 y26,1 y26,1 y26,1 y26,1 y26,1 y27,1 y27,1 y27,1 y27,1 y27,1 y27,1 y27,1 y27,1 y28,1 y28,1 y28,1 y28,1 y28,1 y28,1 y29,1 y29,1 y29,1 y29,1 y29,1 y29,1 y30,1 y30,1 y30,1 y30,1 y30,1 y30,1 y30,1 y30,1 y30,1 y31,1 y31,1 y31,1 y31,1 y32,1 y32,1 y32,1 y32,1 y33,1 y33,1 y33,1 y33,1 y33,1 y34,1 y34,1 y34,1 y34,1 y34,1 y35,1 y35,1 y35,1 y35,1 y35,1 y36,1 y36,1 y36,1 y36,1 y36,1 y37,1 y37,1 y37,1 y37,1 y37,1 y38,1 y38,1 y38,1 y38,1 y38,1 y39,1 y39,1 y39,1 y39,1 y40,1 y40,1 y40,1 y40,1
End
